(set-logic ALL)
(declare-fun var0 () String)
(assert (str.in_re var0 (re.++ (re.+ (re.+ (str.to_re "0"))) (re.++ (re.+ (re.+ (str.to_re "111"))) (re.++ (re.+ (re.+ (str.to_re "222"))) (re.++ (re.+ (re.+ (str.to_re "33"))) (re.++ (re.union (re.+ (str.to_re "4")) (re.union (str.to_re "55") (str.to_re "666"))) (re.++ (re.* (re.+ (str.to_re "77"))) (re.++ (re.+ (re.* (str.to_re "888"))) (re.++ (re.+ (re.union (str.to_re "999") (str.to_re "aaa"))) (re.++ (re.* (re.union (str.to_re "b") (str.to_re "c"))) (re.++ (re.+ (re.* (str.to_re "d"))) (re.++ (re.union (re.+ (str.to_re "ee")) (re.+ (str.to_re "ff"))) (re.++ (re.+ (re.* (str.to_re "gg"))) (re.++ (re.union (re.union (str.to_re "hhh") (str.to_re "i")) (re.union (str.to_re "jj") (str.to_re "kkk"))) (re.++ (re.+ (re.* (str.to_re "lll"))) (re.++ (re.* (re.union (str.to_re "mm") (str.to_re "nn"))) (re.++ (re.union (re.* (str.to_re "oo")) (re.union (str.to_re "p") (str.to_re "qq"))) (re.++ (re.* (re.+ (str.to_re "rrr"))) (re.++ (re.+ (re.* (str.to_re "sss"))) (re.++ (re.union (re.* (str.to_re "tt")) (re.* (str.to_re "uu"))) (re.++ (re.* (re.* (str.to_re "v"))) (re.++ (re.* (re.union (str.to_re "w") (str.to_re "xx"))) (re.++ (re.* (re.* (str.to_re "yyy"))) (re.++ (re.union (re.* (str.to_re "zzz")) (re.* (str.to_re "A"))) (re.++ (re.+ (re.* (str.to_re "B"))) (re.++ (re.+ (re.union (str.to_re "CC") (str.to_re "DD"))) (re.++ (re.union (re.+ (str.to_re "EEE")) (re.* (str.to_re "F"))) (re.++ (re.+ (re.* (str.to_re "G"))) (re.++ (re.* (re.* (str.to_re "HH"))) (re.++ (re.* (re.* (str.to_re "I"))) (re.++ (re.union (re.* (str.to_re "J")) (re.* (str.to_re "K"))) (re.++ (re.* (re.* (str.to_re "LLL"))) (re.++ (re.union (re.+ (str.to_re "M")) (re.union (str.to_re "NN") (str.to_re "OOO"))) (re.++ (re.* (re.+ (str.to_re "PPP"))) (re.++ (re.+ (re.+ (str.to_re "Q"))) (re.++ (re.union (re.union (str.to_re "R") (str.to_re "SSS")) (re.union (str.to_re "T") (str.to_re "UUU"))) (re.++ (re.+ (re.* (str.to_re "V"))) (re.++ (re.union (re.* (str.to_re "W")) (re.* (str.to_re "X"))) (re.++ (re.* (re.+ (str.to_re "Y"))) (re.++ (re.* (re.union (str.to_re "ZZ") (str.to_re "!!"))) (re.++ (re.union (re.* (str.to_re """")) (re.* (str.to_re "###"))) (re.++ (re.* (re.* (str.to_re "$$"))) (re.++ (re.union (re.+ (str.to_re "%%")) (re.+ (str.to_re "&&"))) (re.++ (re.* (re.+ (str.to_re "'''"))) (re.++ (re.union (re.+ (str.to_re "(")) (re.union (str.to_re ")))") (str.to_re "**"))) (re.++ (re.* (re.+ (str.to_re "+++"))) (re.++ (re.+ (re.* (str.to_re ","))) (re.++ (re.* (re.+ (str.to_re "-"))) (re.++ (re.* (re.+ (str.to_re "."))) (re.++ (re.+ (re.* (str.to_re "///"))) (re.++ (re.+ (re.union (str.to_re ":") (str.to_re ";"))) (re.++ (re.union (re.+ (str.to_re "<<")) (re.* (str.to_re "==="))) (re.++ (re.+ (re.+ (str.to_re ">"))) (re.++ (re.+ (re.union (str.to_re "???") (str.to_re "@"))) (re.++ (re.+ (re.* (str.to_re "["))) (re.++ (re.union (re.union (str.to_re "\\") (str.to_re "]]]")) (re.+ (str.to_re "^^"))) (re.++ (re.* (re.+ (str.to_re "_"))) (re.++ (re.+ (re.union (str.to_re "`") (str.to_re "{{"))) (re.++ (re.* (re.+ (str.to_re "||"))) (re.++ (re.* (re.union (str.to_re "}") (str.to_re "~~"))) (re.++ (re.+ (re.+ (str.to_re "00"))) (re.++ (re.union (re.+ (str.to_re "11")) (re.* (str.to_re "222"))) (re.++ (re.union (re.+ (str.to_re "3")) (re.* (str.to_re "444"))) (re.++ (re.union (re.* (str.to_re "5")) (re.+ (str.to_re "6"))) (re.++ (re.union (re.+ (str.to_re "77")) (re.* (str.to_re "888"))) (re.++ (re.union (re.* (str.to_re "9")) (re.* (str.to_re "aaa"))) (re.++ (re.+ (re.union (str.to_re "b") (str.to_re "cc"))) (re.++ (re.* (re.union (str.to_re "d") (str.to_re "ee"))) (re.++ (re.union (re.* (str.to_re "ff")) (re.+ (str.to_re "g"))) (re.++ (re.* (re.+ (str.to_re "hhh"))) (re.++ (re.+ (re.+ (str.to_re "ii"))) (re.++ (re.* (re.union (str.to_re "jjj") (str.to_re "k"))) (re.++ (re.union (re.* (str.to_re "lll")) (re.+ (str.to_re "mmm"))) (re.++ (re.* (re.* (str.to_re "n"))) (re.++ (re.union (re.union (str.to_re "o") (str.to_re "pp")) (re.+ (str.to_re "q"))) (re.++ (re.union (re.+ (str.to_re "r")) (re.* (str.to_re "s"))) (re.++ (re.+ (re.union (str.to_re "tt") (str.to_re "uuu"))) (re.++ (re.union (re.union (str.to_re "vv") (str.to_re "w")) (re.union (str.to_re "x") (str.to_re "y"))) (re.++ (re.union (re.* (str.to_re "zzz")) (re.union (str.to_re "AA") (str.to_re "BB"))) (re.++ (re.union (re.union (str.to_re "CCC") (str.to_re "D")) (re.* (str.to_re "E"))) (re.++ (re.* (re.union (str.to_re "FF") (str.to_re "G"))) (re.++ (re.+ (re.union (str.to_re "HHH") (str.to_re "I"))) (re.++ (re.union (re.* (str.to_re "J")) (re.+ (str.to_re "K"))) (re.++ (re.+ (re.* (str.to_re "LLL"))) (re.++ (re.+ (re.+ (str.to_re "MMM"))) (re.++ (re.union (re.+ (str.to_re "NN")) (re.union (str.to_re "OO") (str.to_re "P"))) (re.++ (re.* (re.union (str.to_re "Q") (str.to_re "R"))) (re.++ (re.+ (re.* (str.to_re "SSS"))) (re.++ (re.+ (re.* (str.to_re "TT"))) (re.++ (re.+ (re.* (str.to_re "UUU"))) (re.++ (re.* (re.* (str.to_re "VV"))) (re.++ (re.+ (re.union (str.to_re "W") (str.to_re "X"))) (re.++ (re.+ (re.union (str.to_re "YYY") (str.to_re "ZZ"))) (re.++ (re.* (re.union (str.to_re "!!!") (str.to_re """"""""))) (re.++ (re.union (re.union (str.to_re "#") (str.to_re "$$$")) (re.union (str.to_re "%") (str.to_re "&"))) (re.++ (re.union (re.+ (str.to_re "''")) (re.union (str.to_re "((") (str.to_re "))"))) (re.++ (re.+ (re.* (str.to_re "*"))) (re.++ (re.union (re.* (str.to_re "+")) (re.union (str.to_re ",,") (str.to_re "--"))) (re.++ (re.+ (re.+ (str.to_re "."))) (re.++ (re.+ (re.* (str.to_re "///"))) (re.++ (re.* (re.+ (str.to_re "::"))) (re.++ (re.union (re.union (str.to_re ";;") (str.to_re "<")) (re.union (str.to_re "=") (str.to_re ">>>"))) (re.++ (re.union (re.union (str.to_re "???") (str.to_re "@")) (re.* (str.to_re "["))) (re.++ (re.+ (re.+ (str.to_re "\\\\"))) (re.++ (re.union (re.+ (str.to_re "]")) (re.+ (str.to_re "^^^"))) (re.++ (re.+ (re.union (str.to_re "_") (str.to_re "`"))) (re.++ (re.* (re.+ (str.to_re "{{"))) (re.++ (re.union (re.union (str.to_re "|||") (str.to_re "}")) (re.* (str.to_re "~"))) (re.++ (re.* (re.* (str.to_re "000"))) (re.++ (re.+ (re.* (str.to_re "111"))) (re.++ (re.* (re.union (str.to_re "222") (str.to_re "333"))) (re.++ (re.+ (re.union (str.to_re "4") (str.to_re "55"))) (re.++ (re.union (re.+ (str.to_re "6")) (re.* (str.to_re "777"))) (re.++ (re.* (re.* (str.to_re "888"))) (re.++ (re.union (re.+ (str.to_re "9")) (re.+ (str.to_re "aaa"))) (re.++ (re.union (re.* (str.to_re "b")) (re.union (str.to_re "ccc") (str.to_re "dd"))) (re.++ (re.+ (re.union (str.to_re "eee") (str.to_re "ff"))) (re.++ (re.* (re.* (str.to_re "ggg"))) (re.++ (re.union (re.* (str.to_re "hh")) (re.union (str.to_re "iii") (str.to_re "jjj"))) (re.++ (re.+ (re.union (str.to_re "kk") (str.to_re "ll"))) (re.++ (re.* (re.* (str.to_re "mmm"))) (re.++ (re.union (re.union (str.to_re "n") (str.to_re "ooo")) (re.+ (str.to_re "ppp"))) (re.++ (re.union (re.+ (str.to_re "qqq")) (re.+ (str.to_re "rrr"))) (re.++ (re.+ (re.+ (str.to_re "sss"))) (re.++ (re.+ (re.union (str.to_re "tt") (str.to_re "uu"))) (re.++ (re.* (re.+ (str.to_re "v"))) (re.++ (re.* (re.* (str.to_re "ww"))) (re.++ (re.+ (re.+ (str.to_re "xx"))) (re.++ (re.* (re.union (str.to_re "yy") (str.to_re "zzz"))) (re.++ (re.union (re.+ (str.to_re "A")) (re.+ (str.to_re "BBB"))) (re.++ (re.union (re.+ (str.to_re "CCC")) (re.* (str.to_re "DDD"))) (re.++ (re.+ (re.+ (str.to_re "EEE"))) (re.++ (re.+ (re.+ (str.to_re "FFF"))) (re.++ (re.* (re.* (str.to_re "G"))) (re.++ (re.* (re.+ (str.to_re "HH"))) (re.++ (re.union (re.+ (str.to_re "III")) (re.* (str.to_re "JJJ"))) (re.++ (re.* (re.* (str.to_re "KKK"))) (re.++ (re.+ (re.+ (str.to_re "LLL"))) (re.++ (re.+ (re.+ (str.to_re "M"))) (re.++ (re.* (re.* (str.to_re "N"))) (re.++ (re.* (re.* (str.to_re "O"))) (re.++ (re.union (re.+ (str.to_re "P")) (re.+ (str.to_re "QQQ"))) (re.++ (re.+ (re.* (str.to_re "RR"))) (re.++ (re.union (re.union (str.to_re "SS") (str.to_re "TT")) (re.+ (str.to_re "UUU"))) (re.++ (re.+ (re.+ (str.to_re "V"))) (re.++ (re.+ (re.* (str.to_re "WWW"))) (re.++ (re.* (re.union (str.to_re "XX") (str.to_re "YYY"))) (re.++ (re.+ (re.union (str.to_re "ZZZ") (str.to_re "!!"))) (re.+ (re.+ (str.to_re """"))))))))))))))))))))))))))))))))))))))))))))))))))))))))))))))))))))))))))))))))))))))))))))))))))))))))))))))))))))))))))))))))))))))))))))))))))))))))
(check-sat)